HUN,8,6,415
0,26,4,13,3,23,5,14,1,16,2,13
4,17,0,2,3,10,5,29,2,27,1,24
1,4,0,26,2,14,5,2,4,14,3,9
5,5,3,14,2,9,1,13,4,4,0,15
3,7,5,11,4,19,0,23,2,3,1,20
4,13,0,27,2,21,5,5,3,10,1,18
2,11,0,6,3,27,1,16,5,26,4,14
1,13,5,4,3,26,4,24,2,10,0,5
